108
Route #1: 1 10 35 
Route #2: 2 
Route #3: 3 28 
Route #4: 4 
Route #5: 5 37 
Route #6: 6 40 
Route #7: 7 
Route #8: 8 43 
Route #9: 9 26 56 
Route #10: 11 
Route #11: 12 21 50 
Route #12: 13 41 
Route #13: 14 27 62 
Route #14: 15 36 48 52 
Route #15: 16 
Route #16: 17 
Route #17: 18 45 70 
Route #18: 19 
Route #19: 20 33 46 
Route #20: 22 31 
Route #21: 23 49 
Route #22: 24 42 
Route #23: 25 44 53 
Route #24: 29 38 51 63 
Route #25: 30 
Route #26: 32 57 
Route #27: 34 59 
Route #28: 39 61 
Route #29: 47 65 87 106 
Route #30: 54 89 101 
Route #31: 55 68 85 132 
Route #32: 58 71 93 
Route #33: 60 115 147 
Route #34: 64 72 
Route #35: 66 69 121 
Route #36: 67 103 129 
Route #37: 73 140 
Route #38: 74 104 
Route #39: 75 105 
Route #40: 76 107 159 
Route #41: 77 130 
Route #42: 78 136 162 
Route #43: 79 142 
Route #44: 80 139 
Route #45: 81 96 135 
Route #46: 82 102 
Route #47: 83 117 150 
Route #48: 84 141 
Route #49: 86 125 151 
Route #50: 88 109 
Route #51: 90 
Route #52: 91 134 158 
Route #53: 92 
Route #54: 94 114 154 
Route #55: 95 127 
Route #56: 97 146 
Route #57: 98 120 
Route #58: 99 149 
Route #59: 100 143 168 
Route #60: 108 
Route #61: 110 124 
Route #62: 111 152 
Route #63: 112 122 161 
Route #64: 113 126 138 
Route #65: 116 
Route #66: 118 155 
Route #67: 119 
Route #68: 123 153 178 
Route #69: 128 173 206 
Route #70: 131 172 
Route #71: 133 
Route #72: 137 148 177 202 
Route #73: 144 191 
Route #74: 145 166 214 
Route #75: 156 186 
Route #76: 157 197 
Route #77: 160 195 216 
Route #78: 163 185 232 
Route #79: 164 211 219 
Route #80: 165 208 
Route #81: 167 184 238 
Route #82: 169 218 
Route #83: 170 217 
Route #84: 171 201 237 
Route #85: 174 223 246 
Route #86: 175 196 213 
Route #87: 176 193 209 224 233 
Route #88: 179 236 
Route #89: 180 240 
Route #90: 181 235 
Route #91: 182 239 
Route #92: 183 231 
Route #93: 187 221 
Route #94: 188 200 
Route #95: 189 242 
Route #96: 190 234 250 
Route #97: 192 210 241 
Route #98: 194 227 
Route #99: 198 226 
Route #100: 199 228 
Route #101: 203 222 245 
Route #102: 204 248 
Route #103: 205 220 230 249 
Route #104: 207 225 247 
Route #105: 212 244 
Route #106: 215 
Route #107: 229 
Route #108: 243 
Cost 180558.0
